Traveling Salesman Problem/TSP_generados/Aleatorio1620396402_17.tsp
NAME: Aleatorio1620396402_17.tsp
COMMENT: Randomly generated scenario
TYPE: TSP
DIMENSION: 17
EDGE_WEIGHT_TYPE: ATT
NODE_COORD_SECTION
1 32.73 7.88
2 42.61 41.96
3 42.66 19.74
4 23.59 10.53
5 45.17 13.16
6 35.04 49.73
7 37.94 1.43
8 3.21 35.0
9 40.79 48.57
10 35.65 23.56
11 49.42 22.3
12 49.57 8.93
13 7.45 35.05
14 15.4 32.88
15 43.75 49.04
16 38.08 5.14
17 9.0 27.88
