Traveling Salesman Problem/TSP_generados/Aleatorio1620396402_17.opt.tour
NAME: Aleatorio1620396402_17.opt.tour
COMMENT: Optimal solution for Aleatorio1620396402_17 (170.3850119646036)
TYPE: TOUR
DIMENSION: 17
TOUR_SECTION
1 4 17 8 13 14 6 9 15 2 10 3 11 5 12 7 16
-1
EOF
